40
    82    87    86    18    48    76    57   100    56    27    40     5    91    61    74    18    71    55    77    28    37    35    42    29    63    86    45    17    47    40    34    90    17    87    41    51    30    67    73     4
     6     9    10     3     9     4     3     1     8     7    10     3     6     4     7     6     4     9     6     5     8     2     1     1     8     7    10     3     8     6     3    10     2     6     4     4     3     9     2     7
   303     0   403     0     0   508   114     0     0   273   111   164     0   338     0     0     0   251     0   272   184   328     0   116     0   347     0     0     0   750    54   120    60     0     0     0     0   780   100   804
